
Gurobi 11.0.2 (win64) logging started Mon Jan 20 23:21:49 2025

Set parameter LogFile to value "log_MTTP4_targetS2_E3_Gurobi.log"
Set parameter Method to value 0

Gurobi 11.0.2 (win64) logging started Mon Jan 20 23:22:44 2025

Set parameter LogFile to value "log_MTTP4_targetS2_E3_Gurobi.log"
Gurobi Optimizer version 11.0.2 build v11.0.2rc0 (win64 - Windows 11.0 (22621.2))

CPU model: 12th Gen Intel(R) Core(TM) i7-12700, instruction set [SSE2|AVX|AVX2]
Thread count: 12 physical cores, 20 logical processors, using up to 20 threads

Optimize a model with 12551133 rows, 12713 columns and 25109595 nonzeros
Model fingerprint: 0x7b640403
Variable types: 0 continuous, 12713 integer (12713 binary)
Coefficient statistics:
  Matrix range     [1e+00, 3e+00]
  Objective range  [1e+00, 1e+00]
  Bounds range     [0e+00, 0e+00]
  RHS range        [1e+00, 2e+00]
Found heuristic solution: objective -0.0000000
Presolve removed 12489878 rows and 953 columns
Presolve time: 3.01s
Presolved: 61255 rows, 11760 columns, 129588 nonzeros
Variable types: 0 continuous, 11760 integer (11760 binary)
Found heuristic solution: objective 171.0000000

Root simplex log...

Iteration    Objective       Primal Inf.    Dual Inf.      Time
       0   -0.0000000e+00   0.000000e+00   2.341000e+03      5s
   11413    4.4423393e+02   0.000000e+00   0.000000e+00      6s

Root relaxation: objective 4.442339e+02, 11413 iterations, 0.85 seconds (0.93 work units)
Total elapsed time = 5.88s (DegenMoves)

    Nodes    |    Current Node    |     Objective Bounds      |     Work
 Expl Unexpl |  Obj  Depth IntInf | Incumbent    BestBd   Gap | It/Node Time

     0     0  444.23393    0 2768  171.00000  444.23393   160%     -    7s
H    0     0                     233.0000000  444.23393  90.7%     -    7s
H    0     0                     241.0000000  444.23393  84.3%     -    7s
H    0     0                     247.0000000  444.23393  79.9%     -    7s
H    0     0                     264.0000000  438.56982  66.1%     -   20s
H    0     0                     275.0000000  438.56982  59.5%     -   20s
H    0     0                     283.0000000  438.56982  55.0%     -   20s
H    0     0                     287.0000000  438.56982  52.8%     -   20s
H    0     0                     294.0000000  438.56982  49.2%     -   20s
H    0     0                     296.0000000  438.56982  48.2%     -   20s
H    0     0                     297.0000000  438.56982  47.7%     -   20s
H    0     0                     302.0000000  438.56982  45.2%     -   20s
H    0     0                     303.0000000  438.56982  44.7%     -   20s
H    0     0                     304.0000000  438.56982  44.3%     -   20s
H    0     0                     307.0000000  438.56982  42.9%     -   20s
H    0     0                     309.0000000  438.56982  41.9%     -   20s
H    0     0                     317.0000000  438.56982  38.4%     -   20s
H    0     0                     319.0000000  438.56982  37.5%     -   20s
H    0     0                     321.0000000  438.56982  36.6%     -   20s
     0     0  438.56982    0 5642  321.00000  438.56982  36.6%     -   21s
H    0     0                     322.0000000  437.65893  35.9%     -   28s
H    0     0                     325.0000000  437.65893  34.7%     -   28s
H    0     0                     326.0000000  437.65893  34.3%     -   28s
H    0     0                     328.0000000  437.65893  33.4%     -   28s
H    0     0                     329.0000000  437.65893  33.0%     -   28s
H    0     0                     331.0000000  437.65893  32.2%     -   28s
H    0     0                     332.0000000  437.65893  31.8%     -   28s
     0     0  437.65893    0 5531  332.00000  437.65893  31.8%     -   28s
     0     0  437.57142    0 5507  332.00000  437.57142  31.8%     -   29s
     0     0  437.56169    0 5577  332.00000  437.56169  31.8%     -   29s
     0     0  437.55807    0 5615  332.00000  437.55807  31.8%     -   30s
     0     0  437.55699    0 5630  332.00000  437.55699  31.8%     -   30s
H    0     0                     333.0000000  434.52841  30.5%     -   63s
H    0     0                     334.0000000  434.52841  30.1%     -   63s
H    0     0                     335.0000000  434.52841  29.7%     -   63s
H    0     0                     336.0000000  434.52841  29.3%     -   63s
H    0     0                     337.0000000  434.52841  28.9%     -   63s
H    0     0                     338.0000000  434.52841  28.6%     -   63s
H    0     0                     340.0000000  434.52841  27.8%     -   63s
H    0     0                     342.0000000  434.52841  27.1%     -   63s
     0     0  434.52841    0 6529  342.00000  434.52841  27.1%     -   63s
H    0     0                     343.0000000  433.12264  26.3%     -   90s
     0     0  433.12264    0 6654  343.00000  433.12264  26.3%     -   90s
H    0     0                     344.0000000  432.82086  25.8%     -  104s
H    0     0                     346.0000000  432.82086  25.1%     -  104s
     0     0  432.82086    0 6804  346.00000  432.82086  25.1%     -  104s
     0     0  432.74271    0 6877  346.00000  432.74271  25.1%     -  110s
     0     0  432.70553    0 6982  346.00000  432.70553  25.1%     -  113s
     0     0  432.69072    0 7011  346.00000  432.69072  25.1%     -  116s
     0     0  432.68614    0 7024  346.00000  432.68614  25.1%     -  117s
     0     0  432.68482    0 7024  346.00000  432.68482  25.1%     -  118s
H    0     0                     347.0000000  431.83436  24.4%     -  150s
H    0     0                     349.0000000  431.83436  23.7%     -  150s
H    0     0                     352.0000000  431.83436  22.7%     -  150s
     0     0  431.83436    0 7136  352.00000  431.83436  22.7%     -  150s
H    0     0                     353.0000000  431.45797  22.2%     -  168s
H    0     0                     355.0000000  431.45797  21.5%     -  168s
H    0     0                     356.0000000  431.45797  21.2%     -  168s
     0     0  431.45797    0 7234  356.00000  431.45797  21.2%     -  169s
     0     0  431.31081    0 7311  356.00000  431.31081  21.2%     -  184s
     0     0  431.23622    0 7360  356.00000  431.23622  21.1%     -  195s
     0     0  431.21162    0 7465  356.00000  431.21162  21.1%     -  201s
     0     0  431.19752    0 7469  356.00000  431.19752  21.1%     -  205s
     0     0  431.19260    0 7511  356.00000  431.19260  21.1%     -  208s
H    0     0                     357.0000000  431.00487  20.7%     -  230s
     0     0  431.00487    0 7485  357.00000  431.00487  20.7%     -  230s
     0     0  430.94532    0 7577  357.00000  430.94532  20.7%     -  242s
     0     0  430.92082    0 7585  357.00000  430.92082  20.7%     -  248s
     0     0  430.91057    0 7647  357.00000  430.91057  20.7%     -  252s
     0     0  430.90702    0 7678  357.00000  430.90702  20.7%     -  254s
     0     0  430.86042    0 7688  357.00000  430.86042  20.7%     -  265s
     0     0  430.83945    0 7728  357.00000  430.83945  20.7%     -  271s
     0     0  430.83195    0 7757  357.00000  430.83195  20.7%     -  275s
     0     0  430.81152    0 7711  357.00000  430.81152  20.7%     -  283s
     0     0  430.81149    0 7633  357.00000  430.81149  20.7%     -  284s
     0     2  430.81139    0 7604  357.00000  430.81139  20.7%     -  292s
     1     4  430.68990    1 7508  357.00000  430.81139  20.7%  5086  300s
     3     8  430.59406    2 7626  357.00000  430.68979  20.6%  7046  331s
     7    16  430.54685    3 7775  357.00000  430.59403  20.6% 11542  355s
    15    28  430.47740    4 7831  357.00000  430.54684  20.6% 13327  381s
    27    40  430.42388    5 7841  357.00000  430.47729  20.6% 14763  400s
    39    52  430.05746    5 7778  357.00000  430.42384  20.6% 14037  449s
    51    64  430.32142    6 7845  357.00000  430.42379  20.6% 14746  497s
    63    76  430.10654    6 7777  357.00000  430.42137  20.6% 13368  519s
    75    93  430.23640    7 7833  357.00000  430.42137  20.6% 13145  532s
    92   107  430.16937    8 7786  357.00000  430.42137  20.6% 11483  558s
   106   122  430.07549    9 7815  357.00000  430.42137  20.6% 11121  570s
   121   138  430.02125   10 7815  357.00000  430.42137  20.6% 10321  585s
   137   156  429.93837   11 7825  357.00000  430.42137  20.6%  9755  602s
   155   171  429.84041   12 7802  357.00000  430.42137  20.6%  9195  630s
   170   187  429.74756   13 7757  357.00000  430.42137  20.6%  9166  664s
   186   208  429.43981   13 7637  357.00000  430.42137  20.6%  9325  683s
   207   230  429.68811   14 7790  357.00000  430.42137  20.6%  8881  703s
   229   250  429.54048   15 7768  357.00000  430.42137  20.6%  8527  727s
H  239   250                     358.0000000  430.42137  20.2%  8386  727s
   249   269  429.21586   16 7731  358.00000  430.42137  20.2%  8382  745s
   268   291  429.44482   16 7709  358.00000  430.42137  20.2%  8185  770s
   290   311  429.32834   17 7656  358.00000  430.42137  20.2%  8130  804s
   310   339  429.30402   18 7679  358.00000  430.42137  20.2%  8188  824s
   338   361  429.11770   21 7615  358.00000  430.42137  20.2%  7858  847s
   360   385  429.02552   22 7599  358.00000  430.42137  20.2%  7750  881s
   384   412  428.95033   24 7646  358.00000  430.42137  20.2%  7798  908s
H  409   412                     359.0000000  430.42137  19.9%  7600  908s
   411   447  428.77225   27 7605  359.00000  430.42137  19.9%  7596  933s
   446   484  428.56471   30 7609  359.00000  430.42137  19.9%  7313  957s
   483   519  428.26109   33 7612  359.00000  430.42137  19.9%  7035  983s
   518   555  427.87185   34 7603  359.00000  430.42137  19.9%  6836 1009s
   554   596  427.96056   37 7510  359.00000  430.42137  19.9%  6665 1038s
   595   636  427.81693   40 7499  359.00000  430.42137  19.9%  6484 1067s
   635   675  427.09594   43 7400  359.00000  430.42137  19.9%  6335 1095s
   674   719  427.55949   46 7499  359.00000  430.42137  19.9%  6224 1125s
   718   765  427.45652   49 7432  359.00000  430.42137  19.9%  6090 1154s
   764   815  427.30000   53 7472  359.00000  430.42137  19.9%  5968 1185s
   814   874  427.18344   56 7463  359.00000  430.42137  19.9%  5838 1218s
   873   929  427.05316   61 7433  359.00000  430.42137  19.9%  5681 1253s
H  889   929                     360.0000000  430.42137  19.6%  5632 1253s
   928   992  426.90797   66 7410  360.00000  430.42137  19.6%  5583 1285s
   991  1061  426.72052   72 7397  360.00000  430.42137  19.6%  5447 1354s
H 1045  1061                     361.0000000  430.42137  19.2%  5321 1354s
  1060  1134  426.54700   77 7382  361.00000  430.42137  19.2%  5304 1394s
  1133  1196  426.33280   83 7311  361.00000  430.42137  19.2%  5194 1433s
  1195  1271  426.18851   87 7362  361.00000  430.42137  19.2%  5144 1474s
  1270  1340  425.62346   89 7271  361.00000  430.42137  19.2%  5064 1520s
  1339  1424  426.00882   93 7271  361.00000  430.42137  19.2%  5013 1563s
  1423  1519  425.84057   97 7214  361.00000  430.42137  19.2%  4928 1610s
  1518  1614  425.35563  102 7127  361.00000  430.42137  19.2%  4837 1657s
  1613  1708  425.47352  106 7200  361.00000  430.42137  19.2%  4757 1708s
H 1670  1708                     363.0000000  430.42137  18.6%  4713 1708s
  1707  1808  425.32727  111 7264  363.00000  430.42137  18.6%  4698 1758s
H 1807  1913                     364.0000000  430.42137  18.2%  4639 1814s
  1912  2040  425.11191  120 7186  364.00000  430.42137  18.2%  4567 1866s
  2039  2174  424.88793  130 7162  364.00000  430.42137  18.2%  4476 1922s
  2173  2315  424.70869  137 7147  364.00000  430.42137  18.2%  4386 1978s
  2314  2470  424.30758  150 7098  364.00000  430.42137  18.2%  4304 2038s
  2469  2638  424.06367  162 7087  364.00000  430.42137  18.2%  4216 2099s
  2637  2798  423.88832  173 7094  364.00000  430.42137  18.2%  4128 2161s
  2797  2976  423.68580  183 7106  364.00000  430.42137  18.2%  4064 2225s
  2975  3165  423.29717  197 7018  364.00000  430.42137  18.2%  3993 2322s
  3164  3393  423.06372  211 7029  364.00000  430.42137  18.2%  3911 2390s
  3392  3644  422.79530  227 6933  364.00000  430.42137  18.2%  3813 2461s
  3643  3900  422.54810  243 6873  364.00000  430.42137  18.2%  3710 2532s
  3899  4168  422.14272  260 6792  364.00000  430.42137  18.2%  3622 2606s
  4167  4464  421.81044  283 6768  364.00000  430.42137  18.2%  3541 2681s
  4463  4764  421.37468  301 6621  364.00000  430.42137  18.2%  3456 2759s
  4765  5092  420.92838  325 6667  364.00000  430.42137  18.2%  3380 2840s
  5093  5424  420.22009  346 6577  364.00000  430.42137  18.2%  3301 2922s
  5425  5773  419.63391  365 6404  364.00000  430.42137  18.2%  3236 3007s
  5778  6196  419.08348  385 6245  364.00000  430.42137  18.2%  3171 3094s
  6201  6636  418.00778  412 6188  364.00000  430.42137  18.2%  3087 3185s
  6645  7139  416.40201  435 5826  364.00000  430.42137  18.2%  3008 3276s
  7156  7707  414.57978  460 5780  364.00000  430.42137  18.2%  2920 3372s
  7730  8478  412.69505  482 5685  364.00000  430.42137  18.2%  2833 3471s
  8519  9515  410.19616  507 5217  364.00000  430.42137  18.2%  2702 3571s

Cutting planes:
  Gomory: 7
  Cover: 2215
  Clique: 175
  MIR: 1486
  StrongCG: 3
  Zero half: 27
  Mod-K: 1
  RLT: 565

Explored 9588 nodes (24445088 simplex iterations) in 3600.36 seconds (5628.84 work units)
Thread count was 20 (of 20 available processors)

Solution count 10: 364 363 361 ... 353

Time limit reached
Best objective 3.640000000000e+02, best bound 4.300000000000e+02, gap 18.1319%

User-callback calls 99762, time in user-callback 0.12 sec

Gurobi 11.0.2 (win64) logging started Tue Jan 21 10:53:01 2025

Set parameter LogFile to value "log_MTTP4_targetS2_E3_Gurobi.log"
Set parameter Method to value 0

Gurobi 11.0.2 (win64) logging started Tue Jan 21 10:54:02 2025

Set parameter LogFile to value "log_MTTP4_targetS2_E3_Gurobi.log"
Gurobi Optimizer version 11.0.2 build v11.0.2rc0 (win64 - Windows 11.0 (22621.2))

CPU model: 12th Gen Intel(R) Core(TM) i7-12700, instruction set [SSE2|AVX|AVX2]
Thread count: 12 physical cores, 20 logical processors, using up to 20 threads

Optimize a model with 12551133 rows, 12713 columns and 25109595 nonzeros
Model fingerprint: 0x7b640403
Variable types: 0 continuous, 12713 integer (12713 binary)
Coefficient statistics:
  Matrix range     [1e+00, 3e+00]
  Objective range  [1e+00, 1e+00]
  Bounds range     [0e+00, 0e+00]
  RHS range        [1e+00, 2e+00]
Found heuristic solution: objective -0.0000000
Presolve removed 12489878 rows and 953 columns
Presolve time: 2.84s
Presolved: 61255 rows, 11760 columns, 129588 nonzeros
Variable types: 0 continuous, 11760 integer (11760 binary)
Found heuristic solution: objective 171.0000000

Root simplex log...

Iteration    Objective       Primal Inf.    Dual Inf.      Time
    9066    4.3900769e+02   0.000000e+00   2.206357e+03      5s
   11413    4.4423393e+02   0.000000e+00   0.000000e+00      6s

Root relaxation: objective 4.442339e+02, 11413 iterations, 0.79 seconds (0.93 work units)
Total elapsed time = 5.53s (DegenMoves)

    Nodes    |    Current Node    |     Objective Bounds      |     Work
 Expl Unexpl |  Obj  Depth IntInf | Incumbent    BestBd   Gap | It/Node Time

     0     0  444.23393    0 2768  171.00000  444.23393   160%     -    6s
H    0     0                     233.0000000  444.23393  90.7%     -    6s
H    0     0                     241.0000000  444.23393  84.3%     -    6s
H    0     0                     247.0000000  444.23393  79.9%     -    7s
H    0     0                     264.0000000  438.56982  66.1%     -   20s
H    0     0                     275.0000000  438.56982  59.5%     -   20s
H    0     0                     283.0000000  438.56982  55.0%     -   20s
H    0     0                     287.0000000  438.56982  52.8%     -   20s
H    0     0                     294.0000000  438.56982  49.2%     -   20s
H    0     0                     296.0000000  438.56982  48.2%     -   20s
H    0     0                     297.0000000  438.56982  47.7%     -   20s
H    0     0                     302.0000000  438.56982  45.2%     -   20s
H    0     0                     303.0000000  438.56982  44.7%     -   20s
H    0     0                     304.0000000  438.56982  44.3%     -   20s
H    0     0                     307.0000000  438.56982  42.9%     -   20s
H    0     0                     309.0000000  438.56982  41.9%     -   20s
H    0     0                     317.0000000  438.56982  38.4%     -   20s
H    0     0                     319.0000000  438.56982  37.5%     -   20s
H    0     0                     321.0000000  438.56982  36.6%     -   20s
     0     0  438.56982    0 5642  321.00000  438.56982  36.6%     -   20s
H    0     0                     322.0000000  437.65893  35.9%     -   27s
H    0     0                     325.0000000  437.65893  34.7%     -   27s
H    0     0                     326.0000000  437.65893  34.3%     -   27s
H    0     0                     328.0000000  437.65893  33.4%     -   27s
H    0     0                     329.0000000  437.65893  33.0%     -   27s
H    0     0                     331.0000000  437.65893  32.2%     -   27s
H    0     0                     332.0000000  437.65893  31.8%     -   27s
     0     0  437.65893    0 5531  332.00000  437.65893  31.8%     -   27s
     0     0  437.57142    0 5507  332.00000  437.57142  31.8%     -   29s
     0     0  437.56169    0 5577  332.00000  437.56169  31.8%     -   29s
     0     0  437.55807    0 5615  332.00000  437.55807  31.8%     -   29s
     0     0  437.55699    0 5630  332.00000  437.55699  31.8%     -   30s
H    0     0                     333.0000000  434.52841  30.5%     -   63s
H    0     0                     334.0000000  434.52841  30.1%     -   63s
H    0     0                     335.0000000  434.52841  29.7%     -   63s
H    0     0                     336.0000000  434.52841  29.3%     -   63s
H    0     0                     337.0000000  434.52841  28.9%     -   63s
H    0     0                     338.0000000  434.52841  28.6%     -   63s
H    0     0                     340.0000000  434.52841  27.8%     -   64s
H    0     0                     342.0000000  434.52841  27.1%     -   64s
     0     0  434.52841    0 6529  342.00000  434.52841  27.1%     -   64s
H    0     0                     343.0000000  433.12264  26.3%     -   91s
     0     0  433.12264    0 6654  343.00000  433.12264  26.3%     -   92s
H    0     0                     344.0000000  432.82086  25.8%     -  106s
H    0     0                     346.0000000  432.82086  25.1%     -  106s
     0     0  432.82086    0 6804  346.00000  432.82086  25.1%     -  106s
     0     0  432.74271    0 6877  346.00000  432.74271  25.1%     -  112s
     0     0  432.70553    0 6982  346.00000  432.70553  25.1%     -  115s
     0     0  432.69072    0 7011  346.00000  432.69072  25.1%     -  118s
     0     0  432.68614    0 7024  346.00000  432.68614  25.1%     -  119s
     0     0  432.68482    0 7024  346.00000  432.68482  25.1%     -  120s
H    0     0                     347.0000000  431.83436  24.4%     -  152s
H    0     0                     349.0000000  431.83436  23.7%     -  152s
H    0     0                     352.0000000  431.83436  22.7%     -  152s
     0     0  431.83436    0 7136  352.00000  431.83436  22.7%     -  152s
H    0     0                     353.0000000  431.45797  22.2%     -  172s
H    0     0                     355.0000000  431.45797  21.5%     -  172s
H    0     0                     356.0000000  431.45797  21.2%     -  172s
     0     0  431.45797    0 7234  356.00000  431.45797  21.2%     -  172s
     0     0  431.31081    0 7311  356.00000  431.31081  21.2%     -  188s
     0     0  431.23622    0 7360  356.00000  431.23622  21.1%     -  199s
     0     0  431.21162    0 7465  356.00000  431.21162  21.1%     -  205s
     0     0  431.19752    0 7469  356.00000  431.19752  21.1%     -  209s
     0     0  431.19260    0 7511  356.00000  431.19260  21.1%     -  211s
H    0     0                     357.0000000  431.00487  20.7%     -  234s
     0     0  431.00487    0 7485  357.00000  431.00487  20.7%     -  234s
     0     0  430.94532    0 7577  357.00000  430.94532  20.7%     -  245s
     0     0  430.92082    0 7585  357.00000  430.92082  20.7%     -  252s
     0     0  430.91057    0 7647  357.00000  430.91057  20.7%     -  256s
     0     0  430.90702    0 7678  357.00000  430.90702  20.7%     -  258s
     0     0  430.86042    0 7688  357.00000  430.86042  20.7%     -  269s
     0     0  430.83945    0 7728  357.00000  430.83945  20.7%     -  276s
     0     0  430.83195    0 7757  357.00000  430.83195  20.7%     -  280s
     0     0  430.81152    0 7711  357.00000  430.81152  20.7%     -  287s
     0     0  430.81149    0 7633  357.00000  430.81149  20.7%     -  288s
     0     2  430.81139    0 7604  357.00000  430.81139  20.7%     -  296s
     1     4  430.68990    1 7508  357.00000  430.81139  20.7%  5086  304s
     3     8  430.59406    2 7626  357.00000  430.68979  20.6%  7046  335s
     7    16  430.54685    3 7775  357.00000  430.59403  20.6% 11542  359s
    15    28  430.47740    4 7831  357.00000  430.54684  20.6% 13327  385s
    27    40  430.42388    5 7841  357.00000  430.47729  20.6% 14763  404s
    39    52  430.05746    5 7778  357.00000  430.42384  20.6% 14037  452s
    51    64  430.32142    6 7845  357.00000  430.42379  20.6% 14746  500s
    63    76  430.10654    6 7777  357.00000  430.42137  20.6% 13368  521s
    75    93  430.23640    7 7833  357.00000  430.42137  20.6% 13145  535s
    92   107  430.16937    8 7786  357.00000  430.42137  20.6% 11483  561s
   106   122  430.07549    9 7815  357.00000  430.42137  20.6% 11121  573s
   121   138  430.02125   10 7815  357.00000  430.42137  20.6% 10321  588s
   137   156  429.93837   11 7825  357.00000  430.42137  20.6%  9755  604s
   155   171  429.84041   12 7802  357.00000  430.42137  20.6%  9195  632s
   170   187  429.74756   13 7757  357.00000  430.42137  20.6%  9166  666s
   186   208  429.43981   13 7637  357.00000  430.42137  20.6%  9325  685s
   207   230  429.68811   14 7790  357.00000  430.42137  20.6%  8881  705s
   229   250  429.54048   15 7768  357.00000  430.42137  20.6%  8527  729s
H  239   250                     358.0000000  430.42137  20.2%  8386  729s
   249   269  429.21586   16 7731  358.00000  430.42137  20.2%  8382  747s
   268   291  429.44482   16 7709  358.00000  430.42137  20.2%  8185  771s
   290   311  429.32834   17 7656  358.00000  430.42137  20.2%  8130  805s
   310   339  429.30402   18 7679  358.00000  430.42137  20.2%  8188  825s
   338   361  429.11770   21 7615  358.00000  430.42137  20.2%  7858  848s
   360   385  429.02552   22 7599  358.00000  430.42137  20.2%  7750  883s
   384   412  428.95033   24 7646  358.00000  430.42137  20.2%  7798  909s
H  409   412                     359.0000000  430.42137  19.9%  7600  909s
   411   447  428.77225   27 7605  359.00000  430.42137  19.9%  7596  935s
   446   484  428.56471   30 7609  359.00000  430.42137  19.9%  7313  959s
   483   519  428.26109   33 7612  359.00000  430.42137  19.9%  7035  984s
   518   555  427.87185   34 7603  359.00000  430.42137  19.9%  6836 1010s
   554   596  427.96056   37 7510  359.00000  430.42137  19.9%  6665 1038s
   595   636  427.81693   40 7499  359.00000  430.42137  19.9%  6484 1068s
   635   675  427.09594   43 7400  359.00000  430.42137  19.9%  6335 1097s
   674   719  427.55949   46 7499  359.00000  430.42137  19.9%  6224 1126s
   718   765  427.45652   49 7432  359.00000  430.42137  19.9%  6090 1155s
   764   815  427.30000   53 7472  359.00000  430.42137  19.9%  5968 1187s
   814   874  427.18344   56 7463  359.00000  430.42137  19.9%  5838 1219s
   873   929  427.05316   61 7433  359.00000  430.42137  19.9%  5681 1255s
H  889   929                     360.0000000  430.42137  19.6%  5632 1255s
   928   992  426.90797   66 7410  360.00000  430.42137  19.6%  5583 1287s
   991  1061  426.72052   72 7397  360.00000  430.42137  19.6%  5447 1355s
H 1045  1061                     361.0000000  430.42137  19.2%  5321 1355s
  1060  1134  426.54700   77 7382  361.00000  430.42137  19.2%  5304 1395s
  1133  1196  426.33280   83 7311  361.00000  430.42137  19.2%  5194 1435s
  1195  1271  426.18851   87 7362  361.00000  430.42137  19.2%  5144 1477s
  1270  1340  425.62346   89 7271  361.00000  430.42137  19.2%  5064 1522s
  1339  1424  426.00882   93 7271  361.00000  430.42137  19.2%  5013 1565s
  1423  1519  425.84057   97 7214  361.00000  430.42137  19.2%  4928 1612s
  1518  1614  425.35563  102 7127  361.00000  430.42137  19.2%  4837 1659s
  1613  1708  425.47352  106 7200  361.00000  430.42137  19.2%  4757 1709s
H 1670  1708                     363.0000000  430.42137  18.6%  4713 1709s
  1707  1808  425.32727  111 7264  363.00000  430.42137  18.6%  4698 1760s
H 1807  1913                     364.0000000  430.42137  18.2%  4639 1816s
  1912  2040  425.11191  120 7186  364.00000  430.42137  18.2%  4567 1867s
  2039  2174  424.88793  130 7162  364.00000  430.42137  18.2%  4476 1924s
  2173  2315  424.70869  137 7147  364.00000  430.42137  18.2%  4386 1980s
  2314  2470  424.30758  150 7098  364.00000  430.42137  18.2%  4304 2039s
  2469  2638  424.06367  162 7087  364.00000  430.42137  18.2%  4216 2099s
  2637  2798  423.88832  173 7094  364.00000  430.42137  18.2%  4128 2162s
  2797  2976  423.68580  183 7106  364.00000  430.42137  18.2%  4064 2226s
  2975  3165  423.29717  197 7018  364.00000  430.42137  18.2%  3993 2322s
  3164  3370  423.06372  211 7029  364.00000  430.42137  18.2%  3911 2384s

Cutting planes:
  Gomory: 7
  Cover: 2215
  Clique: 175
  MIR: 1486
  StrongCG: 3
  Zero half: 27
  Mod-K: 1
  RLT: 565

Explored 3369 nodes (13090142 simplex iterations) in 2385.43 seconds (3648.44 work units)
Thread count was 20 (of 20 available processors)

Solution count 10: 364 363 361 ... 353

Work limit reached
Best objective 3.640000000000e+02, best bound 4.300000000000e+02, gap 18.1319%

User-callback calls 74971, time in user-callback 0.11 sec
